722329
717371
717371
697253
697253
697253
697253
697253
697253
697253
689096
689096
689096
689096
689096
679272
679272
676551
676551
676551
676551
676551
676551
665155
665155
660991
658649
644455
644455
644455
644455
644455
644455
644455
625729
625729
625729
625729
625729
625729
625729
622277
622277
622277
622277
622277
622277
622277
605064
605064
605064
605064
605064
605064
605064
605064
605064
583215
583215
583215
583215
583215
583215
583215
583215
583215
583215
583215
583215
583215
583215
583215
583215
583215
583215
583215
583215
572144
572144
572144
572144
572144
569820
568502
557638
557638
557638
557638
557638
557638
557638
557638
557638
555308
555308
555308
555308
555308
555308
543185
